=obj=                10674
x....001             0
x....002             0
x....003             0
x....004             0
x....005             0
x....006             0
x....007             0
x....008             0
x....009             0
x....010             0
x....011             0
x....012             0
x....013             0
x....014             0
x....015             0
x....016             0
x....017             0
x....018             95
x....019             0
x....020             0
x....021             0
x....022             111
x....023             0
x....024             0
x....025             0
x....026             0
x....027             0
x....028             0
x....029             0
x....030             0
x....031             0
x....032             0
x....033             0
x....034             0
x....035             0
x....036             0
x....037             106.000000000004
x....038             0
x....039             0
x....040             0
x....041             0
x....042             0
x....043             18.9999999999964
x....044             0
x....045             0
x....046             0
x....047             0
x....048             0
x....049             0
x....050             0
x....051             0
x....052             0
x....053             0
x....054             0
x....055             0
x....056             0
x....057             0
x....058             0
x....059             0
x....060             0
x....061             0
x....062             0
x....063             0
x....064             0
x....065             0
x....066             0
x....067             0
x....068             0
x....069             97
x....070             0
x....071             0
x....072             0
x....073             0
x....074             0
x....075             0
x....076             0
x....077             0
x....078             0
x....079             0
x....080             0
x....081             0
x....082             0
x....083             0
x....084             0
x....085             0
x....086             0
x....087             0
x....088             0
x....089             0
x....090             0
x....091             0
x....092             0
x....093             1
x....094             0
x....095             0
x....096             0
x....097             0
x....098             0
x....099             0
x....100             0
x....101             0
x....102             0
x....103             0
x....104             0
x....105             122
x....106             0
x....107             0
x....108             0
x....109             0
x....110             0
x....111             0
x....112             0
x....113             0
x....114             0
x....115             0
x....116             0
x....117             0
x....118             0
x....119             0
x....120             0
x....121             0
x....122             0
x....123             0
x....124             0
x....125             0
x....126             0
x....127             0
x....128             0
x....129             0
x....130             0
x....131             0
x....132             0
x....133             0
x....134             0
x....135             0
x....136             0
x....137             0
x....138             0
x....139             0
x....140             0
x....141             0
x....142             144.999999999996
x....143             0
x....144             0
x....145             0
x....146             0
x....147             0
x....148             0
x....149             0
x....150             0
x....151             0
x....152             0
x....153             0
x....154             0
x....155             0
x....156             0
x....157             4.00000000000181
x....158             1.81232806539806e-12
x....159             0
x....160             0
x....161             0
x....162             0
x....163             0
x....164             0
x....165             0
x....166             0
x....167             0
x....168             0
x....169             0
x....170             0
x....171             0
x....172             0
x....173             0
x....174             0
x....175             0
x....176             0
x....177             0
x....178             0
x....179             0
x....180             0
x....181             164
x....182             0
x....183             0
x....184             0
x....185             0
x....186             0
x....187             0
x....188             0
x....189             0
x....190             0
x....191             0
x....192             32.0000000000036
x....193             0
x....194             0
x....195             0
x....196             0
x....197             0
x....198             0
x....199             0
x....200             0
x....201             0
x....202             0
x....203             0
x....204             0
x....205             0
x....206             0
x....207             0
x....208             0
x....209             0
x....210             0
x....211             0
x....212             0
x....213             0
x....214             0
x....215             0
x....216             0
x....217             81
x....218             0
x....219             0
x....220             0
x....221             0
x....222             0
x....223             3.630429290524e-12
x....224             0
x....225             0
x....226             0
x....227             0
x....228             121
x....229             26.9999999999964
x....230             0
x....231             0
x....232             0
x....233             0
x....234             0
x....235             0
x....236             0
x....237             0
x....238             0
x....239             0
x....240             0
y....001             0
y....002             0
y....003             0
y....004             0
y....005             0
y....006             0
y....007             0
y....008             0
y....009             0
y....010             0
y....011             0
y....012             0
y....013             0
y....014             0
y....015             0
y....016             0
y....017             0
y....018             1
y....019             0
y....020             0
y....021             0
y....022             1
y....023             0
y....024             0
y....025             0
y....026             0
y....027             0
y....028             0
y....029             0
y....030             0
y....031             0
y....032             0
y....033             0
y....034             0
y....035             0
y....036             0
y....037             1
y....038             0
y....039             0
y....040             0
y....041             0
y....042             0
y....043             1
y....044             0
y....045             0
y....046             0
y....047             0
y....048             0
y....049             0
y....050             0
y....051             0
y....052             0
y....053             0
y....054             0
y....055             0
y....056             0
y....057             0
y....058             0
y....059             0
y....060             0
y....061             0
y....062             0
y....063             0
y....064             0
y....065             0
y....066             0
y....067             0
y....068             0
y....069             1
y....070             0
y....071             0
y....072             0
y....073             0
y....074             0
y....075             0
y....076             0
y....077             0
y....078             0
y....079             0
y....080             0
y....081             0
y....082             0
y....083             0
y....084             0
y....085             0
y....086             0
y....087             0
y....088             0
y....089             0
y....090             0
y....091             0
y....092             0
y....093             1
y....094             0
y....095             0
y....096             0
y....097             0
y....098             0
y....099             0
y....100             0
y....101             0
y....102             0
y....103             0
y....104             0
y....105             1
y....106             0
y....107             0
y....108             0
y....109             0
y....110             0
y....111             0
y....112             0
y....113             0
y....114             0
y....115             0
y....116             0
y....117             0
y....118             0
y....119             0
y....120             0
y....121             0
y....122             0
y....123             0
y....124             0
y....125             0
y....126             0
y....127             0
y....128             0
y....129             0
y....130             0
y....131             0
y....132             0
y....133             0
y....134             0
y....135             0
y....136             0
y....137             0
y....138             0
y....139             0
y....140             0
y....141             0
y....142             1
y....143             0
y....144             0
y....145             0
y....146             0
y....147             0
y....148             0
y....149             0
y....150             0
y....151             0
y....152             0
y....153             0
y....154             0
y....155             0
y....156             0
y....157             1
y....158             0
y....159             0
y....160             0
y....161             0
y....162             0
y....163             0
y....164             0
y....165             0
y....166             0
y....167             0
y....168             0
y....169             0
y....170             0
y....171             0
y....172             0
y....173             0
y....174             0
y....175             0
y....176             0
y....177             0
y....178             0
y....179             0
y....180             0
y....181             1
y....182             0
y....183             0
y....184             0
y....185             0
y....186             0
y....187             0
y....188             0
y....189             0
y....190             0
y....191             0
y....192             1
y....193             0
y....194             0
y....195             0
y....196             0
y....197             0
y....198             0
y....199             0
y....200             0
y....201             0
y....202             0
y....203             0
y....204             0
y....205             0
y....206             0
y....207             0
y....208             0
y....209             0
y....210             0
y....211             0
y....212             0
y....213             0
y....214             0
y....215             0
y....216             0
y....217             1
y....218             0
y....219             0
y....220             0
y....221             0
y....222             0
y....223             0
y....224             0
y....225             0
y....226             0
y....227             0
y....228             1
y....229             1
y....230             0
y....231             0
y....232             0
y....233             0
y....234             0
y....235             0
y....236             0
y....237             0
y....238             0
y....239             0
y....240             0
